NAME: ipa-building-navigation
TYPE: TSP
COMMENT: This is the TSPlib file for using concorde. See http://comopt.ifi.uni-heidelberg.de/software/TSPLIB95/ for documentation.
DIMENSION: 8
EDGE_WEIGHT_TYPE: EXPLICIT
EDGE_WEIGHT_FORMAT: FULL_MATRIX
EDGE_WEIGHT_SECTION
 0 296 178 198 180 333 509 561
 296 0 324 228 239 302 234 286
 178 324 0 226 228 381 537 590
 198 228 226 0 157 285 441 493
 180 239 228 157 0 269 452 504
 333 302 381 285 269 0 292 341
 509 234 537 441 452 292 0 138
 561 286 590 493 504 341 138 0
EOF